HFSDDW
15	12	4
0	25	1	35	2	57	3	23
0	74	1	55	2	15	3	87
0	83	1	86	2	49	3	9
0	96	1	73	2	66	3	99
0	12	1	44	2	99	3	89
0	69	1	65	2	62	3	70
0	7	1	69	2	64	3	15
0	95	1	98	2	62	3	13
0	1	1	27	2	86	3	53
0	15	1	35	2	3	3	78
0	44	1	75	2	87	3	15
0	29	1	93	2	49	3	83
0	61	1	51	2	95	3	90
0	7	1	83	2	83	3	59
0	72	1	86	2	17	3	5
LBCmax: 382
RELDUE
-1	184	9	8
-1	191	5	4
-1	186	2	2
-1	179	8	5
-1	133	5	1
-1	143	7	1
-1	121	2	4
-1	168	3	8
-1	181	3	2
-1	125	9	8
-1	180	5	8
-1	174	1	9
-1	146	9	8
-1	131	8	9
-1	149	5	6
DDW
180	188
181	201
169	203
172	186
121	145
130	156
117	125
160	176
179	183
114	136
178	182
165	183
139	153
119	143
140	158
